(set-option :print-success true)
(set-option :produce-models true)
(set-logic ALL)
(declare-sort Unspecified 0)
(declare-sort Unit 0)
(declare-const loaded_value_0 (_ BitVec 64))
(declare-const clif_load_active_1 Bool)
(declare-const clif_load_size_bits_2 Int)
(declare-const clif_load_addr_3 (_ BitVec 64))
(declare-const clif_store_active_4 Bool)
(declare-const clif_store_size_bits_5 Int)
(declare-const clif_store_addr_6 (_ BitVec 64))
(declare-const clif_store_value_7 (_ BitVec 64))
(declare-const clif_trap_8 Bool)
(declare-const isa_load_active_9 Bool)
(declare-const isa_load_size_bits_10 Int)
(declare-const isa_load_addr_11 (_ BitVec 64))
(declare-const isa_store_active_12 Bool)
(declare-const isa_store_size_bits_13 Int)
(declare-const isa_store_addr_14 (_ BitVec 64))
(declare-const isa_store_value_15 (_ BitVec 64))
(declare-const b0_16 (_ BitVec 1))
(declare-const b3_some_17 Bool)
(declare-const b3_inner_0_aligned_18 Bool)
(declare-const b3_inner_0_trapcode_19 (_ BitVec 4))
(declare-const b3_inner_1_20 (_ BitVec 64))
(declare-const b3_inner_2_21 (_ BitVec 64))
(declare-const b3_inner_3_22 (_ BitVec 32))
(declare-const e23 Bool)
(assert (! (= e23 true) :named expr23))
(declare-const e24 Int)
(assert (! (= e24 64) :named expr24))
(declare-const e25 Bool)
(assert (! (= e25 (= clif_store_size_bits_5 e24)) :named expr25))
(declare-const e26 Int)
(assert (! (= e26 64) :named expr26))
(declare-const e27 (_ BitVec 64))
(assert (! (= e27 ((_ sign_extend 32) b3_inner_3_22)) :named expr27))
(declare-const e28 (_ BitVec 64))
(assert (! (= e28 (bvadd b3_inner_2_21 e27)) :named expr28))
(declare-const e29 Bool)
(assert (! (= e29 (= clif_store_addr_6 e28)) :named expr29))
(declare-const e30 (_ BitVec 64))
(assert (! (= e30 clif_store_value_7) :named expr30))
(declare-const e31 Bool)
(assert (! (= e31 (= e30 b3_inner_1_20)) :named expr31))
(declare-const e32 Bool)
(assert (! (= e32 (and e29 e31)) :named expr32))
(declare-const e33 Bool)
(assert (! (= e33 (and e25 e32)) :named expr33))
(declare-const e34 Bool)
(assert (! (= e34 (and clif_store_active_4 e33)) :named expr34))
(declare-const e35 (_ BitVec 1))
(assert (! (= e35 #b1) :named expr35))
(declare-const e36 Bool)
(assert (! (= e36 (= b0_16 e35)) :named expr36))
(declare-const e37 Bool)
(assert (! (= e37 (and e34 e36)) :named expr37))
(declare-const e38 Bool)
(assert (! (= e38 (= b3_some_17 e23)) :named expr38))
(declare-const e39 Bool)
(assert (! (= e39 (=> e23 e37)) :named expr39))
(declare-const b4_0_aligned_40 Bool)
(declare-const b4_0_trapcode_41 (_ BitVec 4))
(declare-const b4_1_42 (_ BitVec 64))
(declare-const b4_2_43 (_ BitVec 64))
(declare-const b4_3_44 (_ BitVec 32))
(declare-const e45 Bool)
(assert (! (= e45 (= b4_0_aligned_40 b3_inner_0_aligned_18)) :named expr45))
(declare-const e46 Bool)
(assert (! (= e46 (= b4_0_trapcode_41 b3_inner_0_trapcode_19)) :named expr46))
(declare-const e47 Bool)
(assert (! (= e47 (and e45 e46)) :named expr47))
(declare-const e48 Bool)
(assert (! (= e48 (= b4_1_42 b3_inner_1_20)) :named expr48))
(declare-const e49 Bool)
(assert (! (= e49 (= b4_2_43 b3_inner_2_21)) :named expr49))
(declare-const e50 Bool)
(assert (! (= e50 (= b4_3_44 b3_inner_3_22)) :named expr50))
(declare-const e51 Bool)
(assert (! (= e51 (and e47 e48)) :named expr51))
(declare-const e52 Bool)
(assert (! (= e52 (and e51 e49)) :named expr52))
(declare-const e53 Bool)
(assert (! (= e53 (and e52 e50)) :named expr53))
(declare-const e54 Bool)
(assert (! (= e54 (=> b3_some_17 e53)) :named expr54))
(declare-const b5_55 (_ BitVec 64))
(declare-const e56 Bool)
(assert (! (= e56 (= b5_55 b4_1_42)) :named expr56))
(declare-const b6_bits_57 Int)
(declare-const e58 Int)
(assert (! (= e58 64) :named expr58))
(declare-const e59 Bool)
(assert (! (= e59 (= b6_bits_57 e58)) :named expr59))
(declare-const b7_some_60 Bool)
(declare-const b7_inner_bits_61 Int)
(declare-const e62 Bool)
(assert (! (= e62 (= b6_bits_57 b7_inner_bits_61)) :named expr62))
(declare-const e63 Bool)
(assert (! (= e63 (= b7_some_60 e23)) :named expr63))
(declare-const e64 Bool)
(assert (! (= e64 (=> e23 e62)) :named expr64))
(declare-const b8_aligned_65 Bool)
(declare-const b8_trapcode_66 (_ BitVec 4))
(declare-const e67 Bool)
(assert (! (= e67 (= b8_aligned_65 b4_0_aligned_40)) :named expr67))
(declare-const e68 Bool)
(assert (! (= e68 (= b8_trapcode_66 b4_0_trapcode_41)) :named expr68))
(declare-const e69 Bool)
(assert (! (= e69 (and e67 e68)) :named expr69))
(declare-const b9_70 (_ BitVec 64))
(declare-const e71 Bool)
(assert (! (= e71 (= b9_70 b4_2_43)) :named expr71))
(declare-const b10_72 (_ BitVec 32))
(declare-const e73 Bool)
(assert (! (= e73 (= b10_72 b4_3_44)) :named expr73))
(declare-const b12_74 (_ BitVec 64))
(declare-const b62_addr_75 (_ BitVec 64))
(declare-const b62_flags_aligned_76 Bool)
(declare-const b62_flags_trapcode_77 (_ BitVec 4))
(declare-const b60_78 (_ BitVec 32))
(declare-const b52_79 (_ BitVec 32))
(declare-const b51_80 (_ BitVec 32))
(declare-const b49_some_81 Bool)
(declare-const b49_inner_82 (_ BitVec 32))
(declare-const b47_83 (_ BitVec 32))
(declare-const e84 Bool)
(assert (! (= e84 (= b47_83 b10_72)) :named expr84))
(declare-const b48_85 (_ BitVec 32))
(declare-const b46_some_86 Bool)
(declare-const b46_inner_87 (_ BitVec 32))
(declare-const b45_88 (_ BitVec 64))
(declare-const b44_0_bits_89 Int)
(declare-const b44_1_90 (_ BitVec 64))
(declare-const b44_2_91 (_ BitVec 64))
(declare-const b43_some_92 Bool)
(declare-const b43_inner_0_bits_93 Int)
(declare-const b43_inner_1_94 (_ BitVec 64))
(declare-const b43_inner_2_95 (_ BitVec 64))
(declare-const b42_96 (_ BitVec 64))
(declare-const b41_some_97 Bool)
(declare-const b41_inner_98 (_ BitVec 64))
(declare-const b35_99 (_ BitVec 64))
(declare-const b33_0_bits_100 Int)
(declare-const b33_1_101 (_ BitVec 64))
(declare-const b33_2_102 (_ BitVec 64))
(declare-const b32_some_103 Bool)
(declare-const b32_inner_0_bits_104 Int)
(declare-const b32_inner_1_105 (_ BitVec 64))
(declare-const b32_inner_2_106 (_ BitVec 64))
(declare-const b31_107 (_ BitVec 64))
(declare-const b30_some_108 Bool)
(declare-const b30_inner_109 (_ BitVec 64))
(declare-const e110 Bool)
(assert (! (= e110 (= b9_70 b30_inner_109)) :named expr110))
(declare-const e111 Bool)
(assert (! (= e111 (= b30_some_108 e23)) :named expr111))
(declare-const e112 Bool)
(assert (! (= e112 (=> e23 e110)) :named expr112))
(declare-const e113 Bool)
(assert (! (= e113 (= b31_107 b30_inner_109)) :named expr113))
(declare-const e114 Bool)
(assert (! (= e114 (=> b30_some_108 e113)) :named expr114))
(declare-const e115 (_ BitVec 64))
(assert (! (= e115 (bvadd b32_inner_1_105 b32_inner_2_106)) :named expr115))
(declare-const e116 Bool)
(assert (! (= e116 (= b31_107 e115)) :named expr116))
(declare-const e117 Bool)
(assert (! (= e117 (= b32_some_103 e23)) :named expr117))
(declare-const e118 Bool)
(assert (! (= e118 (=> e23 e116)) :named expr118))
(declare-const e119 Bool)
(assert (! (= e119 (= b33_0_bits_100 b32_inner_0_bits_104)) :named expr119))
(declare-const e120 Bool)
(assert (! (= e120 (= b33_1_101 b32_inner_1_105)) :named expr120))
(declare-const e121 Bool)
(assert (! (= e121 (= b33_2_102 b32_inner_2_106)) :named expr121))
(declare-const e122 Bool)
(assert (! (= e122 (and e119 e120)) :named expr122))
(declare-const e123 Bool)
(assert (! (= e123 (and e122 e121)) :named expr123))
(declare-const e124 Bool)
(assert (! (= e124 (=> b32_some_103 e123)) :named expr124))
(declare-const e125 Bool)
(assert (! (= e125 (= b35_99 b33_2_102)) :named expr125))
(declare-const e126 Bool)
(assert (! (= e126 (= b35_99 b41_inner_98)) :named expr126))
(declare-const e127 Bool)
(assert (! (= e127 (= b41_some_97 e23)) :named expr127))
(declare-const e128 Bool)
(assert (! (= e128 (=> e23 e126)) :named expr128))
(declare-const e129 Bool)
(assert (! (= e129 (= b42_96 b41_inner_98)) :named expr129))
(declare-const e130 Bool)
(assert (! (= e130 (=> b41_some_97 e129)) :named expr130))
(declare-const e131 (_ BitVec 64))
(assert (! (= e131 (bvadd b43_inner_1_94 b43_inner_2_95)) :named expr131))
(declare-const e132 Bool)
(assert (! (= e132 (= b42_96 e131)) :named expr132))
(declare-const e133 Bool)
(assert (! (= e133 (= b43_some_92 e23)) :named expr133))
(declare-const e134 Bool)
(assert (! (= e134 (=> e23 e132)) :named expr134))
(declare-const e135 Bool)
(assert (! (= e135 (= b44_0_bits_89 b43_inner_0_bits_93)) :named expr135))
(declare-const e136 Bool)
(assert (! (= e136 (= b44_1_90 b43_inner_1_94)) :named expr136))
(declare-const e137 Bool)
(assert (! (= e137 (= b44_2_91 b43_inner_2_95)) :named expr137))
(declare-const e138 Bool)
(assert (! (= e138 (and e135 e136)) :named expr138))
(declare-const e139 Bool)
(assert (! (= e139 (and e138 e137)) :named expr139))
(declare-const e140 Bool)
(assert (! (= e140 (=> b43_some_92 e139)) :named expr140))
(declare-const e141 Bool)
(assert (! (= e141 (= b45_88 b44_2_91)) :named expr141))
(declare-const e142 (_ BitVec 64))
(assert (! (= e142 b45_88) :named expr142))
(declare-const e143 (_ BitVec 64))
(assert (! (= e143 #b0000000000000000000000000000000001111111111111111111111111111111) :named expr143))
(declare-const e144 Bool)
(assert (! (= e144 (bvsle e142 e143)) :named expr144))
(declare-const e145 (_ BitVec 64))
(assert (! (= e145 #b0000000000000000000000000000000010000000000000000000000000000000) :named expr145))
(declare-const e146 (_ BitVec 64))
(assert (! (= e146 (bvneg e145)) :named expr146))
(declare-const e147 Bool)
(assert (! (= e147 (bvsle e146 e142)) :named expr147))
(declare-const e148 (_ BitVec 32))
(assert (! (= e148 ((_ extract 31 0) e142)) :named expr148))
(declare-const e149 Bool)
(assert (! (= e149 (= b46_inner_87 e148)) :named expr149))
(declare-const e150 Bool)
(assert (! (= e150 (and e144 e147)) :named expr150))
(declare-const e151 Bool)
(assert (! (= e151 (= b46_some_86 e150)) :named expr151))
(declare-const e152 Bool)
(assert (! (= e152 (=> e150 e149)) :named expr152))
(declare-const e153 Bool)
(assert (! (= e153 (= b48_85 b46_inner_87)) :named expr153))
(declare-const e154 Bool)
(assert (! (= e154 (=> b46_some_86 e153)) :named expr154))
(declare-const e155 Bool)
(assert (! (= e155 (bvsaddo b47_83 b48_85)) :named expr155))
(declare-const e156 Bool)
(assert (! (= e156 (not e155)) :named expr156))
(declare-const e157 (_ BitVec 32))
(assert (! (= e157 (bvadd b47_83 b48_85)) :named expr157))
(declare-const e158 Bool)
(assert (! (= e158 (= b49_inner_82 e157)) :named expr158))
(declare-const e159 Bool)
(assert (! (= e159 (= b49_some_81 e156)) :named expr159))
(declare-const e160 Bool)
(assert (! (= e160 (=> e156 e158)) :named expr160))
(declare-const e161 Bool)
(assert (! (= e161 (= b51_80 b49_inner_82)) :named expr161))
(declare-const e162 Bool)
(assert (! (= e162 (=> b49_some_81 e161)) :named expr162))
(declare-const e163 Bool)
(assert (! (= e163 (= b52_79 b51_80)) :named expr163))
(declare-const e164 Bool)
(assert (! (= e164 (= b60_78 b52_79)) :named expr164))
(declare-const b58_165 (_ BitVec 64))
(declare-const b34_166 (_ BitVec 64))
(declare-const e167 Bool)
(assert (! (= e167 (= b34_166 b33_1_101)) :named expr167))
(declare-const e168 (_ BitVec 64))
(assert (! (= e168 b34_166) :named expr168))
(declare-const e169 Bool)
(assert (! (= e169 (= b58_165 e168)) :named expr169))
(declare-const b59_170 (_ BitVec 64))
(declare-const b50_171 (_ BitVec 64))
(declare-const e172 Bool)
(assert (! (= e172 (= b50_171 b44_1_90)) :named expr172))
(declare-const e173 (_ BitVec 64))
(assert (! (= e173 b50_171) :named expr173))
(declare-const e174 Bool)
(assert (! (= e174 (= b59_170 e173)) :named expr174))
(declare-const b61_175 (_ BitVec 8))
(declare-const e176 (_ BitVec 8))
(assert (! (= e176 #b00000000) :named expr176))
(declare-const e177 Bool)
(assert (! (= e177 (= b61_175 e176)) :named expr177))
(declare-const e178 (_ BitVec 64))
(assert (! (= e178 ((_ sign_extend 32) b60_78)) :named expr178))
(declare-const e179 (_ BitVec 64))
(assert (! (= e179 (bvadd b58_165 e178)) :named expr179))
(declare-const e180 (_ BitVec 64))
(assert (! (= e180 ((_ zero_extend 56) b61_175)) :named expr180))
(declare-const e181 (_ BitVec 64))
(assert (! (= e181 (bvshl b59_170 e180)) :named expr181))
(declare-const e182 (_ BitVec 64))
(assert (! (= e182 (bvadd e179 e181)) :named expr182))
(declare-const e183 Bool)
(assert (! (= e183 (= b62_addr_75 e182)) :named expr183))
(declare-const e184 Bool)
(assert (! (= e184 (= b62_flags_aligned_76 b8_aligned_65)) :named expr184))
(declare-const e185 Bool)
(assert (! (= e185 (= b62_flags_trapcode_77 b8_trapcode_66)) :named expr185))
(declare-const e186 Bool)
(assert (! (= e186 (and e184 e185)) :named expr186))
(declare-const e187 Bool)
(assert (! (= e187 (= b12_74 b62_addr_75)) :named expr187))
(declare-const b13_188 (_ BitVec 64))
(declare-const e189 (_ BitVec 64))
(assert (! (= e189 b5_55) :named expr189))
(declare-const e190 Bool)
(assert (! (= e190 (= b13_188 e189)) :named expr190))
(declare-const b14_bits_191 Int)
(declare-const e192 Bool)
(assert (! (= e192 (= b14_bits_191 b7_inner_bits_61)) :named expr192))
(declare-const e193 Bool)
(assert (! (= e193 (=> b7_some_60 e192)) :named expr193))
(declare-const b17_some_194 Bool)
(declare-const b17_inner_195 (_ BitVec 1))
(declare-const b20_196 (_ BitVec 1))
(declare-const e197 Bool)
(assert (! (= e197 (= b20_196 e35)) :named expr197))
(declare-const e198 Bool)
(assert (! (= e198 (= b20_196 b17_inner_195)) :named expr198))
(declare-const b19_199 (_ BitVec 1))
(declare-const b26_discriminant_200 Int)
(declare-const b26_Inst_inst_201 (_ BitVec 1))
(declare-const b26_Inst2_inst1_202 (_ BitVec 1))
(declare-const b26_Inst2_inst2_203 (_ BitVec 1))
(declare-const b26_Inst3_inst1_204 (_ BitVec 1))
(declare-const b26_Inst3_inst2_205 (_ BitVec 1))
(declare-const b26_Inst3_inst3_206 (_ BitVec 1))
(declare-const e207 Int)
(assert (! (= e207 0) :named expr207))
(declare-const e208 Int)
(assert (! (= e208 3) :named expr208))
(declare-const e209 Bool)
(assert (! (= e209 (<= e207 b26_discriminant_200)) :named expr209))
(declare-const e210 Bool)
(assert (! (= e210 (< b26_discriminant_200 e208)) :named expr210))
(declare-const e211 Bool)
(assert (! (= e211 (and e209 e210)) :named expr211))
(declare-const b25_212 (_ BitVec 1))
(declare-const b24_discriminant_213 Int)
(declare-const e214 Int)
(assert (! (= e214 4) :named expr214))
(declare-const e215 Bool)
(assert (! (= e215 (<= e207 b24_discriminant_213)) :named expr215))
(declare-const e216 Bool)
(assert (! (= e216 (< b24_discriminant_213 e214)) :named expr216))
(declare-const e217 Bool)
(assert (! (= e217 (and e215 e216)) :named expr217))
(declare-const e218 Int)
(assert (! (= e218 8) :named expr218))
(declare-const e219 Bool)
(assert (! (= e219 (= b14_bits_191 e218)) :named expr219))
(declare-const e220 Bool)
(assert (! (= e220 (<= e207 e207)) :named expr220))
(declare-const e221 Bool)
(assert (! (= e221 (< e207 e214)) :named expr221))
(declare-const e222 Bool)
(assert (! (= e222 (and e220 e221)) :named expr222))
(declare-const e223 Int)
(assert (! (= e223 16) :named expr223))
(declare-const e224 Bool)
(assert (! (= e224 (= b14_bits_191 e223)) :named expr224))
(declare-const e225 Int)
(assert (! (= e225 1) :named expr225))
(declare-const e226 Bool)
(assert (! (= e226 (<= e207 e225)) :named expr226))
(declare-const e227 Bool)
(assert (! (= e227 (< e225 e214)) :named expr227))
(declare-const e228 Bool)
(assert (! (= e228 (and e226 e227)) :named expr228))
(declare-const e229 Int)
(assert (! (= e229 32) :named expr229))
(declare-const e230 Bool)
(assert (! (= e230 (= b14_bits_191 e229)) :named expr230))
(declare-const e231 Int)
(assert (! (= e231 2) :named expr231))
(declare-const e232 Bool)
(assert (! (= e232 (<= e207 e231)) :named expr232))
(declare-const e233 Bool)
(assert (! (= e233 (< e231 e214)) :named expr233))
(declare-const e234 Bool)
(assert (! (= e234 (and e232 e233)) :named expr234))
(declare-const e235 Bool)
(assert (! (= e235 (= b14_bits_191 e26)) :named expr235))
(declare-const e236 Bool)
(assert (! (= e236 (<= e207 e208)) :named expr236))
(declare-const e237 Bool)
(assert (! (= e237 (< e208 e214)) :named expr237))
(declare-const e238 Bool)
(assert (! (= e238 (and e236 e237)) :named expr238))
(declare-const undef_239 Int)
(declare-const e240 Int)
(assert (! (= e240 (ite e235 e208 undef_239)) :named expr240))
(declare-const e241 Int)
(assert (! (= e241 (ite e230 e231 e240)) :named expr241))
(declare-const e242 Int)
(assert (! (= e242 (ite e224 e225 e241)) :named expr242))
(declare-const e243 Int)
(assert (! (= e243 (ite e219 e207 e242)) :named expr243))
(declare-const e244 Bool)
(assert (! (= e244 (= b24_discriminant_213 e243)) :named expr244))
(declare-const e245 Bool)
(assert (! (= e245 (= b24_discriminant_213 e207)) :named expr245))
(declare-const e246 Bool)
(assert (! (= e246 (=> e245 e23)) :named expr246))
(declare-const e247 Bool)
(assert (! (= e247 (= b24_discriminant_213 e225)) :named expr247))
(declare-const e248 Bool)
(assert (! (= e248 (=> e247 e23)) :named expr248))
(declare-const e249 Bool)
(assert (! (= e249 (= b24_discriminant_213 e231)) :named expr249))
(declare-const e250 Bool)
(assert (! (= e250 (=> e249 e23)) :named expr250))
(declare-const e251 Bool)
(assert (! (= e251 (= b24_discriminant_213 e208)) :named expr251))
(declare-const e252 Bool)
(assert (! (= e252 (=> e251 e23)) :named expr252))
(declare-const e253 Bool)
(assert (! (= e253 (and e244 e246)) :named expr253))
(declare-const e254 Bool)
(assert (! (= e254 (and e253 e248)) :named expr254))
(declare-const e255 Bool)
(assert (! (= e255 (and e254 e250)) :named expr255))
(declare-const e256 Bool)
(assert (! (= e256 (and e255 e252)) :named expr256))
(declare-const e257 Bool)
(assert (! (= e257 (= isa_store_active_12 e23)) :named expr257))
(declare-const e258 Bool)
(assert (! (= e258 (and e245 e246)) :named expr258))
(declare-const e259 Bool)
(assert (! (= e259 (and e258 e248)) :named expr259))
(declare-const e260 Bool)
(assert (! (= e260 (and e259 e250)) :named expr260))
(declare-const e261 Bool)
(assert (! (= e261 (and e260 e252)) :named expr261))
(declare-const e262 Bool)
(assert (! (= e262 (and e247 e246)) :named expr262))
(declare-const e263 Bool)
(assert (! (= e263 (and e262 e248)) :named expr263))
(declare-const e264 Bool)
(assert (! (= e264 (and e263 e250)) :named expr264))
(declare-const e265 Bool)
(assert (! (= e265 (and e264 e252)) :named expr265))
(declare-const e266 Bool)
(assert (! (= e266 (and e249 e246)) :named expr266))
(declare-const e267 Bool)
(assert (! (= e267 (and e266 e248)) :named expr267))
(declare-const e268 Bool)
(assert (! (= e268 (and e267 e250)) :named expr268))
(declare-const e269 Bool)
(assert (! (= e269 (and e268 e252)) :named expr269))
(declare-const e270 Bool)
(assert (! (= e270 (and e251 e246)) :named expr270))
(declare-const e271 Bool)
(assert (! (= e271 (and e270 e248)) :named expr271))
(declare-const e272 Bool)
(assert (! (= e272 (and e271 e250)) :named expr272))
(declare-const e273 Bool)
(assert (! (= e273 (and e272 e252)) :named expr273))
(declare-const undef_274 Int)
(declare-const e275 Int)
(assert (! (= e275 (ite e273 e26 undef_274)) :named expr275))
(declare-const e276 Int)
(assert (! (= e276 (ite e269 e229 e275)) :named expr276))
(declare-const e277 Int)
(assert (! (= e277 (ite e265 e223 e276)) :named expr277))
(declare-const e278 Int)
(assert (! (= e278 (ite e261 e218 e277)) :named expr278))
(declare-const e279 Bool)
(assert (! (= e279 (= isa_store_size_bits_13 e278)) :named expr279))
(declare-const e280 Bool)
(assert (! (= e280 (= isa_store_addr_14 b12_74)) :named expr280))
(declare-const e281 Bool)
(assert (! (= e281 (= isa_store_value_15 b13_188)) :named expr281))
(declare-const undef_Inst2_inst1_282 (_ BitVec 1))
(declare-const undef_Inst2_inst2_283 (_ BitVec 1))
(declare-const undef_Inst3_inst1_284 (_ BitVec 1))
(declare-const undef_Inst3_inst2_285 (_ BitVec 1))
(declare-const undef_Inst3_inst3_286 (_ BitVec 1))
(declare-const e287 Bool)
(assert (! (= e287 (< e207 e208)) :named expr287))
(declare-const e288 Bool)
(assert (! (= e288 (and e220 e287)) :named expr288))
(declare-const e289 Bool)
(assert (! (= e289 (= b26_discriminant_200 e207)) :named expr289))
(declare-const e290 Bool)
(assert (! (= e290 (= b26_Inst_inst_201 b25_212)) :named expr290))
(declare-const e291 Bool)
(assert (! (= e291 (=> e289 e290)) :named expr291))
(declare-const e292 Bool)
(assert (! (= e292 (= b26_discriminant_200 e225)) :named expr292))
(declare-const e293 Bool)
(assert (! (= e293 (= b26_Inst2_inst1_202 undef_Inst2_inst1_282)) :named expr293))
(declare-const e294 Bool)
(assert (! (= e294 (= b26_Inst2_inst2_203 undef_Inst2_inst2_283)) :named expr294))
(declare-const e295 Bool)
(assert (! (= e295 (and e293 e294)) :named expr295))
(declare-const e296 Bool)
(assert (! (= e296 (=> e292 e295)) :named expr296))
(declare-const e297 Bool)
(assert (! (= e297 (= b26_discriminant_200 e231)) :named expr297))
(declare-const e298 Bool)
(assert (! (= e298 (= b26_Inst3_inst1_204 undef_Inst3_inst1_284)) :named expr298))
(declare-const e299 Bool)
(assert (! (= e299 (= b26_Inst3_inst2_205 undef_Inst3_inst2_285)) :named expr299))
(declare-const e300 Bool)
(assert (! (= e300 (= b26_Inst3_inst3_206 undef_Inst3_inst3_286)) :named expr300))
(declare-const e301 Bool)
(assert (! (= e301 (and e298 e299)) :named expr301))
(declare-const e302 Bool)
(assert (! (= e302 (and e301 e300)) :named expr302))
(declare-const e303 Bool)
(assert (! (= e303 (=> e297 e302)) :named expr303))
(declare-const e304 Bool)
(assert (! (= e304 (and e289 e291)) :named expr304))
(declare-const e305 Bool)
(assert (! (= e305 (and e304 e296)) :named expr305))
(declare-const e306 Bool)
(assert (! (= e306 (and e305 e303)) :named expr306))
(declare-const e307 Bool)
(assert (! (= e307 (= b17_inner_195 b0_16)) :named expr307))
(declare-const e308 Bool)
(assert (! (= e308 (= b17_some_194 e23)) :named expr308))
(declare-const e309 Bool)
(assert (! (= e309 (=> e23 e307)) :named expr309))
(declare-const e310 Bool)
(assert (! (= e310 (not clif_load_active_1)) :named expr310))
(declare-const e311 Bool)
(assert (! (= e311 (not clif_store_active_4)) :named expr311))
(declare-const e312 Bool)
(assert (! (= e312 (= clif_store_size_bits_5 e225)) :named expr312))
(declare-const e313 Bool)
(assert (! (= e313 (and e311 e312)) :named expr313))
(declare-const e314 Bool)
(assert (! (= e314 (not e23)) :named expr314))
(declare-const e315 Bool)
(assert (! (= e315 (=> e314 e313)) :named expr315))
(declare-const e316 Bool)
(assert (! (= e316 (not clif_trap_8)) :named expr316))
(declare-const e317 Bool)
(assert (! (= e317 (not isa_load_active_9)) :named expr317))
(declare-const e318 Bool)
(assert (! (= e318 (not isa_store_active_12)) :named expr318))
(declare-const e319 Bool)
(assert (! (= e319 (= isa_store_size_bits_13 e225)) :named expr319))
(declare-const e320 Bool)
(assert (! (= e320 (and e318 e319)) :named expr320))
(declare-const e321 Bool)
(assert (! (= e321 (=> e314 e320)) :named expr321))
(push)
(assert (and e38 e39 e54 e56 e59 e63 e64 e69 e71 e73 e84 e111 e112 e114 e117 e118 e124 e125 e127 e128 e130 e133 e134 e140 e141 e151 e152 e154 e159 e160 e162 e163 e164 e167 e169 e172 e174 e177 e183 e186 e187 e190 e193 e197 b17_some_194 e198 e211 e217 e222 e228 e234 e238 e256 e222 e228 e234 e238 e257 e279 e280 e281 e288 e306 e23 e308 b3_some_17 b7_some_60 b30_some_108 b32_some_103 b41_some_97 b43_some_92 b46_some_86 b49_some_81 e23 e310 e315 e316 e317 e321))
(check-sat)
(pop)
(push)
(assert (not (=> (and e38 e39 e54 e56 e59 e63 e64 e69 e71 e73 e84 e111 e112 e114 e117 e118 e124 e125 e127 e128 e130 e133 e134 e140 e141 e151 e152 e154 e159 e160 e162 e163 e164 e167 e169 e172 e174 e177 e183 e186 e187 e190 e193 e197 b17_some_194 e198 e211 e217 e222 e228 e234 e238 e256 e222 e228 e234 e238 e257 e279 e280 e281 e288 e306 e23 e308 b3_some_17 b7_some_60 b30_some_108 b32_some_103 b41_some_97 b43_some_92 b46_some_86 b49_some_81 e23 e310 e315 e316 e317 e321) e309)))
(check-sat)
(pop)
(exit)
